(synth-fun lemma ((x Int) (y Int) (nil Int)) Bool
           ((Start Bool) (BLeaf Bool) (I Int) (Loc Int))

           ((Start Bool (BLeaf
                  (=> BLeaf BLeaf)))
           (BLeaf Bool (
                  (<= I I)
                  (not (= Loc nil))
                  (member x (hbst x))
                  (member x (hbst y))
                  (member x (hbst nil))
                  (member y (hbst x))
                  (member y (hbst y))
                  (member y (hbst nil))
                  (member nil (hbst x))
                  (member nil (hbst y))
                  (member nil (hbst nil))
                  (bst Loc)))
           (I Int (
                  (key Loc)
                  (minr Loc)
                  (maxr Loc)))
           (Loc Int (x y nil)))
)

(synth-fun rswitch () Int
           ((Start Int))
           ((Start Int (0)))
)
